Route #1: 1 45 58 14 13 51 30 47 1
Route #2: 1 18 12 9 3 32 27 19 1
Route #3: 1 46 48 41 5 15 1
Route #4: 1 53 55 36 44 29 39 31 33 50 21 1
Route #5: 1 24 17 6 10 57 28 60 38 1
Route #6: 1 26 7 56 23 43 35 20 1
Route #7: 1 40 52 49 16 34 1
Route #8: 1 37 2 42 8 4 22 11 59 1
Route #9: 1 54 25 1
cost 3335.8113389091964